hcp Cu                                  
   2.80000000000000     
     0.8660000000000000   -0.5000000000000000    0.0000000000000000
     0.0000000000000000    1.0000000000000000    0.0000000000000000
     0.0000000000000000    0.0000000000000000    1.7400000000000000
   Cu
     2
Direct
  0.0000000000000000  0.0000000000000000  0.0000000000000000
  0.6666999999999987  0.3333000000000013  0.5000000000000000
 
  0.00000000E+00  0.00000000E+00  0.00000000E+00
  0.00000000E+00  0.00000000E+00  0.00000000E+00
