hcp Cu
2.8
 0.866 -0.5 0.0
 0.0 1.0 0.0
 0.0 0.0 1.74
2
Direct
0 0 0
0.6667 0.3333 0.5
